c generated by Julia
p edge 29 203
e 1 2
e 1 3
e 2 3
e 1 4
e 2 4
e 1 5
e 2 5
e 1 6
e 2 6
e 5 6
e 1 7
e 2 7
e 3 7
e 5 7
e 1 8
e 2 8
e 4 8
e 6 8
e 7 8
e 1 9
e 7 9
e 8 9
e 1 10
e 3 10
e 5 10
e 9 10
e 1 11
e 4 11
e 6 11
e 9 11
e 1 12
e 3 12
e 4 12
e 8 12
e 9 12
e 10 12
e 1 13
e 3 13
e 4 13
e 7 13
e 9 13
e 11 13
e 1 14
e 3 14
e 5 14
e 6 14
e 10 14
e 11 14
e 13 14
e 1 15
e 4 15
e 5 15
e 6 15
e 10 15
e 11 15
e 12 15
e 2 16
e 3 16
e 4 16
e 12 16
e 13 16
e 14 16
e 15 16
e 2 17
e 3 17
e 5 17
e 9 17
e 10 17
e 11 17
e 12 17
e 2 18
e 4 18
e 6 18
e 9 18
e 10 18
e 11 18
e 13 18
e 17 18
e 2 19
e 3 19
e 6 19
e 8 19
e 9 19
e 11 19
e 14 19
e 16 19
e 17 19
e 2 20
e 4 20
e 5 20
e 7 20
e 9 20
e 10 20
e 15 20
e 16 20
e 18 20
e 19 20
e 2 21
e 3 21
e 6 21
e 7 21
e 11 21
e 12 21
e 15 21
e 16 21
e 17 21
e 18 21
e 2 22
e 4 22
e 5 22
e 8 22
e 10 22
e 13 22
e 14 22
e 16 22
e 17 22
e 18 22
e 7 23
e 8 23
e 9 23
e 10 23
e 11 23
e 14 23
e 15 23
e 16 23
e 19 23
e 20 23
e 21 23
e 22 23
e 5 24
e 6 24
e 7 24
e 9 24
e 12 24
e 13 24
e 14 24
e 16 24
e 18 24
e 20 24
e 21 24
e 5 25
e 6 25
e 8 25
e 9 25
e 12 25
e 13 25
e 15 25
e 16 25
e 17 25
e 19 25
e 22 25
e 24 25
e 3 26
e 4 26
e 5 26
e 7 26
e 11 26
e 13 26
e 15 26
e 17 26
e 19 26
e 20 26
e 25 26
e 3 27
e 4 27
e 6 27
e 8 27
e 10 27
e 12 27
e 14 27
e 18 27
e 19 27
e 20 27
e 24 27
e 26 27
e 3 28
e 6 28
e 7 28
e 8 28
e 10 28
e 13 28
e 15 28
e 18 28
e 21 28
e 22 28
e 23 28
e 25 28
e 26 28
e 27 28
e 4 29
e 5 29
e 7 29
e 8 29
e 11 29
e 12 29
e 14 29
e 17 29
e 21 29
e 22 29
e 23 29
e 24 29
e 26 29
e 27 29
